db/data/13380631629482254063902283992811019053.z3.out
sat
-------------------
601.983797669
